# 8057
param k := 6;
param n := 60;
param s := 1;
set E :=  (0,35) (0,39) (1,2) (1,18) (1,26) (1,31) (1,47) (2,11) (2,58) (3,59) (4,10) (4,13) (4,15) (5,17) (6,9) (6,33) (7,12) (7,39) (8,23) (8,36) (8,54) (8,59) (9,16) (9,19) (9,28) (9,59) (12,15) (13,27) (14,50) (15,40) (15,58) (16,17) (16,57) (17,55) (18,32) (18,41) (18,51) (19,39) (20,34) (21,22) (22,57) (24,31) (24,43) (25,48) (27,32) (28,38) (29,40) (29,46) (30,35) (30,37) (32,36) (33,42) (34,39) (35,50) (36,53) (37,54) (41,44) (44,56) (45,47) (46,49) (47,48) (52,54);